%%% 16 guests version 2
N = 16; 
gender = [1, 2, 1, 2, 1, 1, 2, 1, 1, 1, 2, 2, 2, 2, 2, 1]; 
hobbies = [	 {1},
	 {2,3},
	 {3,2},
	 {2},
	 {2,3},
	 {2,1},
	 {1,3},
	 {3},
	 {2,1},
	 {3,1},
	 {1,2},
	 {2},
	 {2,3},
	 {2,3},
	 {3},
	 {2}
	 ];

pR = 2;
furious = [|5,15|12,9|];